NAME          
ROWS
 N  OBJ
 L  c1
 L  c2
COLUMNS
    MARKER    'MARKER'                 'INTORG'
    x[1]      c1        438
    x[1]      c2        243
    x[1]      OBJ       -267
    x[2]      c1        826
    x[2]      c2        75
    x[2]      OBJ       -886
    x[3]      c1        957
    x[3]      c2        780
    x[3]      OBJ       -420
    x[4]      c1        29
    x[4]      c2        733
    x[4]      OBJ       -632
    x[5]      c1        247
    x[5]      c2        83
    x[5]      OBJ       -852
    x[6]      c1        56
    x[6]      c2        828
    x[6]      OBJ       -396
    x[7]      c1        408
    x[7]      c2        238
    x[7]      OBJ       -582
    x[8]      c1        674
    x[8]      c2        496
    x[8]      OBJ       -324
    x[9]      c1        97
    x[9]      c2        20
    x[9]      OBJ       -282
    x[10]     c1        976
    x[10]     c2        572
    x[10]     OBJ       -463
    x[11]     c1        480
    x[11]     c2        13
    x[11]     OBJ       -572
    x[12]     c1        450
    x[12]     c2        237
    x[12]     OBJ       -671
    x[13]     c1        319
    x[13]     c2        178
    x[13]     OBJ       -608
    x[14]     c1        482
    x[14]     c2        676
    x[14]     OBJ       -71
    x[15]     c1        149
    x[15]     c2        486
    x[15]     OBJ       -998
RHS
    rhs       c1        3294
    rhs       c2        2829
RANGES
BOUNDS
 BV bounds    x[1]
 BV bounds    x[2]
 BV bounds    x[3]
 BV bounds    x[4]
 BV bounds    x[5]
 BV bounds    x[6]
 BV bounds    x[7]
 BV bounds    x[8]
 BV bounds    x[9]
 BV bounds    x[10]
 BV bounds    x[11]
 BV bounds    x[12]
 BV bounds    x[13]
 BV bounds    x[14]
 BV bounds    x[15]
ENDATA
